 200 49 
 54 13 54 44 5 47 14 78 74 40 88 68 
 21 12 86 83 89 82 11 32 7 49 67 72 
 92 99 49 27 38 63 31 100 84 82 53 4 
 19 47 76 2 60 3 70 5 18 58 67 19 
 82 
 4 
 1 4 7 38 
 6 
 7 10 20 32 36 45 
 33 
 1 4 5 6 7 9 11 13 16 20 21 22 
 23 24 25 26 27 28 29 32 33 34 35 36 
 37 38 39 40 41 42 43 48 49 
 32 
 1 3 5 6 7 8 9 11 12 13 14 15 
 16 17 20 24 25 26 27 28 30 32 33 34 
 37 38 39 40 41 43 44 49 
 44 
 1 2 3 4 5 6 7 8 9 10 11 13 
 14 15 16 17 18 19 20 21 22 25 26 27 
 28 29 30 31 32 33 34 35 36 37 40 41 
 42 43 44 45 46 47 48 49 
 20 
 1 11 13 17 18 20 22 25 26 27 30 32 
 33 34 35 38 41 42 44 46 
 3 
 15 26 48 
 34 
 2 4 5 8 9 11 17 18 19 20 21 23 
 24 27 28 29 31 32 33 34 35 36 37 38 
 39 40 41 42 43 44 45 46 48 49 
 41 
 2 3 4 5 6 7 8 10 11 12 13 14 
 15 16 17 18 19 20 22 23 24 26 28 29 
 30 31 32 33 34 35 36 38 39 40 42 43 
 44 45 46 48 49 
 47 
 1 2 3 4 5 6 8 9 10 11 12 13 
 14 15 16 17 18 19 20 21 22 23 24 25 
 26 27 28 29 31 32 33 34 35 36 37 38 
 39 40 41 42 43 44 45 46 47 48 49 
 4 
 18 34 43 48 
 20 
 2 6 8 9 11 12 16 20 21 25 28 29 
 31 35 36 38 42 45 46 49 
 16 
 6 8 10 13 14 19 22 23 31 34 36 38 
 41 42 46 47 
 11 
 2 8 17 23 26 28 30 35 44 47 49 
 28 
 1 2 3 4 5 8 11 13 17 19 20 22 
 23 25 27 28 31 32 34 37 39 40 42 43 
 44 45 46 49 
 11 
 2 10 15 16 21 22 29 37 38 45 47 
 28 
 2 5 6 8 10 11 12 14 16 17 18 21 
 22 23 25 26 27 30 31 32 33 34 36 42 
 44 45 47 48 
 14 
 3 9 18 19 21 22 24 27 28 33 35 36 
 37 39 
 25 
 5 7 9 11 12 16 19 20 22 23 24 25 
 26 28 31 32 34 36 37 40 41 43 44 45 
 49 
 49 
 1 2 3 4 5 6 7 8 9 10 11 12 
 13 14 15 16 17 18 19 20 21 22 23 24 
 25 26 27 28 29 30 31 32 33 34 35 36 
 37 38 39 40 41 42 43 44 45 46 47 48 
 49 
 5 
 1 20 22 25 31 
 46 
 1 2 3 4 5 6 7 8 9 10 11 12 
 13 14 15 16 17 18 19 20 21 22 23 24 
 25 26 27 29 30 31 32 33 35 36 37 38 
 39 40 41 42 43 44 45 47 48 49 
 31 
 1 2 6 7 8 9 11 13 14 16 17 18 
 19 21 22 23 24 25 26 27 29 31 32 33 
 34 37 41 46 47 48 49 
 47 
 1 2 3 4 5 6 7 8 9 10 11 12 
 13 14 15 16 17 18 19 20 21 22 23 24 
 25 26 27 28 29 30 31 32 33 35 36 37 
 38 39 41 42 43 44 45 46 47 48 49 
 10 
 2 5 17 21 26 28 33 34 38 41 
 42 
 1 2 3 4 5 7 9 10 11 13 14 15 
 16 17 18 19 20 21 22 23 24 26 27 29 
 30 31 33 34 35 36 37 38 39 40 41 42 
 43 44 45 46 48 49 
 49 
 1 2 3 4 5 6 7 8 9 10 11 12 
 13 14 15 16 17 18 19 20 21 22 23 24 
 25 26 27 28 29 30 31 32 33 34 35 36 
 37 38 39 40 41 42 43 44 45 46 47 48 
 49 
 22 
 3 5 6 7 9 10 14 15 17 20 27 29 
 30 33 34 35 37 41 42 43 44 47 
 6 
 10 18 28 35 43 45 
 48 
 1 2 3 4 5 6 7 8 9 10 11 12 
 13 14 15 16 17 18 19 20 21 22 23 24 
 25 26 27 28 30 31 32 33 34 35 36 37 
 38 39 40 41 42 43 44 45 46 47 48 49 
 23 
 1 3 4 7 11 12 16 17 19 21 25 27 
 30 32 34 35 39 40 41 44 45 46 49 
 34 
 2 4 7 8 9 10 11 12 13 16 18 19 
 20 21 22 23 24 25 26 27 28 30 31 32 
 33 34 36 37 39 41 44 45 46 47 
 7 
 7 32 34 35 36 39 42 
 40 
 1 2 3 5 6 7 8 9 10 11 12 13 
 14 16 18 19 21 23 24 25 27 28 29 32 
 33 34 35 36 38 39 40 41 42 43 44 45 
 46 47 48 49 
 23 
 2 3 4 8 10 11 12 13 15 17 19 22 
 26 29 30 31 35 39 40 41 46 47 49 
 6 
 19 24 27 33 40 41 
 15 
 4 11 12 13 14 22 33 34 35 36 37 41 
 44 45 48 
 34 
 1 3 4 6 8 9 10 12 13 14 15 16 
 17 18 20 21 22 24 26 27 28 32 33 35 
 36 37 39 40 43 44 45 47 48 49 
 37 
 1 4 5 6 7 8 9 10 11 12 14 15 
 16 17 18 19 21 22 23 24 25 26 27 28 
 30 32 33 35 36 37 38 41 44 45 46 47 
 48 
 15 
 5 9 23 24 29 30 34 35 36 38 41 42 
 45 46 49 
 15 
 5 6 7 12 16 18 20 23 25 30 32 33 
 38 41 42 
 2 
 11 20 
 49 
 1 2 3 4 5 6 7 8 9 10 11 12 
 13 14 15 16 17 18 19 20 21 22 23 24 
 25 26 27 28 29 30 31 32 33 34 35 36 
 37 38 39 40 41 42 43 44 45 46 47 48 
 49 
 21 
 2 6 7 10 15 18 20 22 23 24 25 26 
 30 31 33 34 40 43 44 47 49 
 3 
 7 18 26 
 46 
 1 2 3 4 5 7 8 9 10 11 12 13 
 14 15 16 17 18 19 20 21 22 23 24 25 
 26 27 28 29 30 31 32 33 34 35 36 37 
 39 40 41 43 44 45 46 47 48 49 
 15 
 2 6 10 16 18 19 22 25 27 32 35 39 
 41 47 49 
 31 
 1 3 4 6 7 8 9 11 13 16 17 18 
 19 21 22 23 27 28 29 34 35 36 38 39 
 40 41 44 46 47 48 49 
 28 
 1 4 6 11 12 13 15 16 19 21 25 26 
 30 32 33 34 36 37 38 39 40 41 42 44 
 45 46 48 49 
 32 
 1 2 3 7 8 9 11 13 14 15 16 17 
 18 21 22 23 25 29 30 31 32 33 35 37 
 38 39 40 41 44 45 47 49 
 5 
 4 18 34 39 44 
 13 
 1 4 9 12 13 20 26 28 29 33 36 38 
 42 
 45 
 1 2 3 4 5 6 7 8 9 10 11 12 
 13 14 15 16 17 18 19 20 21 22 23 24 
 25 27 28 29 30 31 32 34 35 36 38 39 
 40 41 42 43 44 45 46 47 49 
 22 
 2 3 6 7 13 15 18 21 22 25 26 27 
 29 33 34 37 38 42 45 47 48 49 
 20 
 3 4 10 11 14 15 16 17 18 22 23 28 
 31 37 40 41 42 43 44 47 
 17 
 1 2 3 6 7 11 12 16 17 19 20 21 
 22 25 33 34 38 
 3 
 16 18 22 
 28 
 2 4 9 10 12 16 17 19 21 22 23 25 
 26 27 28 29 30 31 32 35 36 37 39 40 
 41 43 44 48 
 15 
 2 4 5 6 8 22 30 31 32 36 38 40 
 45 48 49 
 14 
 2 4 11 16 20 27 28 33 39 40 42 43 
 47 48 
 7 
 3 4 21 30 32 35 46 
 12 
 3 7 10 14 15 20 21 24 26 30 39 48 
 42 
 1 2 3 4 5 6 7 8 9 10 11 12 
 13 14 15 16 17 18 21 23 24 25 26 27 
 30 31 32 33 34 35 37 38 40 41 42 43 
 44 45 46 47 48 49 
 16 
 5 10 13 14 16 23 25 28 30 33 36 38 
 39 40 41 46 
 24 
 1 5 6 7 9 10 12 14 15 17 18 19 
 21 23 25 27 37 38 41 43 44 45 46 49 
 48 
 1 2 3 4 5 6 7 8 9 10 11 12 
 13 14 15 16 17 18 19 20 21 22 23 24 
 25 26 27 28 29 30 31 32 33 34 35 36 
 37 38 39 41 42 43 44 45 46 47 48 49 
 14 
 10 15 21 22 27 30 31 33 34 35 36 37 
 38 42 
 27 
 1 4 6 8 9 10 12 15 16 21 22 24 
 26 27 28 31 33 34 35 36 37 42 43 44 
 45 46 49 
 10 
 2 9 10 18 19 21 24 27 33 34 
 22 
 1 2 7 10 11 12 15 19 20 22 23 24 
 25 27 28 30 31 39 45 46 47 49 
 21 
 1 4 5 6 12 19 22 23 24 25 26 27 
 32 33 34 40 41 43 45 46 48 
 33 
 1 3 5 6 7 8 9 12 13 14 16 17 
 18 19 20 24 25 27 28 30 32 34 35 36 
 37 39 41 42 43 44 45 47 49 
 42 
 1 2 3 4 5 6 7 8 9 10 11 12 
 13 15 17 18 19 21 22 23 24 25 26 29 
 30 31 32 33 34 36 37 38 39 40 41 42 
 43 45 46 47 48 49 
 31 
 1 2 4 6 7 9 12 13 14 16 17 18 
 19 21 22 25 27 28 29 30 31 32 33 37 
 38 39 40 42 45 46 49 
 43 
 1 2 4 5 6 7 8 9 10 11 12 13 
 14 15 17 18 19 20 21 22 23 24 25 26 
 27 28 30 31 33 34 35 36 37 38 39 40 
 41 42 43 44 46 48 49 
 11 
 2 3 16 20 24 25 26 28 33 43 45 
 35 
 2 3 4 6 7 10 11 12 13 14 15 17 
 18 19 21 22 23 24 25 26 27 28 29 30 
 33 35 37 40 41 42 44 45 46 48 49 
 10 
 12 15 21 23 26 30 32 34 40 46 
 8 
 21 26 34 36 37 38 40 41 
 8 
 7 8 17 23 26 36 39 48 
 21 
 3 8 9 14 18 22 24 27 29 30 34 36 
 37 39 41 43 44 45 46 47 48 
 24 
 1 3 5 6 7 8 13 15 18 19 20 21 
 22 23 24 25 28 29 32 34 37 38 42 46 
 31 
 1 2 3 5 7 9 10 11 12 13 16 18 
 20 22 25 27 29 30 31 32 33 36 37 38 
 40 43 44 45 47 48 49 
 40 
 2 4 5 6 7 8 9 10 12 13 14 15 
 17 18 19 21 22 23 24 25 26 27 28 29 
 31 32 33 34 36 37 38 39 40 41 42 43 
 44 46 48 49 
 19 
 1 10 11 12 15 17 20 27 28 29 31 32 
 33 36 38 41 43 44 45 
 47 
 1 2 3 4 5 6 8 9 10 11 12 13 
 14 15 16 17 18 19 20 21 22 23 24 25 
 26 27 28 29 30 31 32 33 34 35 36 37 
 38 40 41 42 43 44 45 46 47 48 49 
 17 
 5 7 10 11 16 17 20 21 22 23 25 28 
 30 37 41 46 47 
 22 
 2 5 7 9 10 12 14 16 19 20 28 32 
 33 35 36 38 39 40 41 42 46 49 
 15 
 1 2 8 14 15 18 21 24 25 26 28 33 
 37 39 45 
 23 
 1 2 3 7 11 14 15 16 17 19 20 21 
 23 25 26 27 30 31 34 35 38 39 48 
 44 
 1 2 3 4 5 6 7 8 9 10 11 13 
 14 15 16 17 18 19 21 22 23 24 25 27 
 28 29 30 31 32 33 34 35 37 38 39 40 
 41 42 43 44 45 46 48 49 
 34 
 2 3 7 8 9 10 11 12 13 14 16 17 
 18 19 20 21 22 23 25 26 27 28 29 30 
 31 32 33 34 35 36 38 40 42 45 
 40 
 2 3 5 6 7 8 9 10 11 12 14 15 
 16 17 18 19 20 21 22 23 25 26 27 28 
 29 30 33 35 37 38 39 40 41 42 43 45 
 46 47 48 49 
 36 
 1 2 3 4 5 6 8 9 10 11 13 14 
 16 17 18 19 20 21 23 24 26 27 29 30 
 31 32 34 35 36 38 39 44 45 47 48 49 
 21 
 1 3 4 10 11 12 13 14 15 16 17 18 
 19 21 29 30 31 40 41 44 45 
 22 
 4 7 9 11 12 15 16 17 19 24 30 31 
 32 33 35 36 38 41 43 45 46 48 
 10 
 8 12 15 17 25 29 33 40 41 44 
 15 
 2 3 8 9 11 18 21 23 24 26 32 34 
 44 47 49 
 48 
 1 3 4 5 6 7 8 9 10 11 12 13 
 14 15 16 17 18 19 20 21 22 23 24 25 
 26 27 28 29 30 31 32 33 34 35 36 37 
 38 39 40 41 42 43 44 45 46 47 48 49 
 39 
 1 2 3 6 7 8 9 12 13 14 15 16 
 17 18 19 20 21 22 23 24 25 26 28 29 
 30 31 32 33 34 36 39 40 42 43 44 46 
 47 48 49 
 15 
 9 10 11 12 15 16 21 23 26 28 34 36 
 38 42 48 
 18 
 1 2 4 7 9 13 14 19 24 25 26 29 
 30 32 34 41 42 47 
 42 
 2 3 4 5 6 7 9 12 13 14 15 16 
 18 19 20 21 22 23 25 26 27 28 29 30 
 31 32 33 34 36 37 38 39 40 41 42 43 
 44 45 46 47 48 49 
 30 
 1 6 7 8 9 10 13 15 16 19 20 21 
 22 23 26 28 29 30 32 33 34 35 38 39 
 41 42 43 44 46 47 
 15 
 2 5 10 14 18 21 23 26 27 33 34 35 
 37 39 49 
 23 
 2 3 4 6 7 8 13 14 16 17 21 24 
 26 30 31 33 36 38 39 41 43 45 47 
 33 
 1 2 3 4 6 7 10 11 13 14 15 16 
 18 19 20 22 24 26 27 29 31 32 33 34 
 35 36 37 38 40 42 44 48 49 
 4 
 10 29 44 47 
 42 
 1 2 3 4 5 6 7 8 9 10 11 12 
 13 14 16 17 18 19 20 21 23 24 25 26 
 28 29 30 31 32 34 35 36 38 40 41 42 
 43 44 46 47 48 49 
 6 
 6 7 24 32 33 39 
 8 
 13 28 29 33 34 41 44 49 
 43 
 1 2 3 5 7 8 9 10 11 12 13 14 
 15 16 17 18 19 20 21 22 23 24 26 28 
 29 30 32 33 34 35 36 37 38 39 40 42 
 43 44 45 46 47 48 49 
 39 
 1 2 3 4 5 6 7 10 11 14 15 16 
 18 20 21 22 23 24 25 26 28 29 31 32 
 34 35 36 37 39 40 41 42 43 44 45 46 
 47 48 49 
 5 
 1 9 12 30 34 
 7 
 4 9 16 27 32 34 41 
 44 
 3 4 5 6 7 8 9 11 12 13 14 15 
 16 17 18 19 20 21 22 23 24 25 26 27 
 28 30 31 32 33 34 35 36 37 38 39 40 
 41 42 43 44 45 46 48 49 
 11 
 7 20 22 27 28 30 32 33 37 41 43 
 9 
 6 17 18 19 20 29 33 47 48 
 17 
 2 4 6 11 18 19 20 22 26 29 32 35 
 38 43 45 46 48 
 42 
 1 2 3 4 5 6 7 8 9 10 11 13 
 14 15 17 18 19 20 21 22 23 24 25 26 
 27 29 30 32 33 34 36 37 38 39 40 41 
 42 43 44 45 48 49 
 28 
 2 3 5 6 9 10 11 12 15 17 21 26 
 27 28 29 31 32 34 35 36 37 39 40 42 
 44 45 46 49 
 15 
 2 3 4 8 10 14 17 19 24 31 36 37 
 38 42 46 
 6 
 9 19 22 31 36 44 
 48 
 1 2 3 4 5 6 7 8 9 10 11 13 
 14 15 16 17 18 19 20 21 22 23 24 25 
 26 27 28 29 30 31 32 33 34 35 36 37 
 38 39 40 41 42 43 44 45 46 47 48 49 
 42 
 1 2 4 5 6 7 8 9 10 11 12 13 
 14 15 17 18 19 21 22 24 25 26 27 28 
 29 30 31 33 34 35 36 38 39 40 41 42 
 43 44 45 46 48 49 
 6 
 9 10 22 26 27 35 
 14 
 3 7 8 9 10 18 25 26 29 31 33 35 
 40 48 
 27 
 3 5 8 11 13 14 15 16 18 20 21 22 
 23 24 25 27 28 32 39 40 41 42 43 44 
 46 47 48 
 16 
 3 4 8 10 11 15 20 22 26 27 31 38 
 41 43 44 47 
 24 
 2 3 4 5 6 9 14 18 24 27 28 30 
 31 32 33 34 36 37 39 42 43 45 48 49 
 44 
 1 2 3 5 6 7 8 9 10 11 12 13 
 14 15 16 17 18 19 20 21 22 23 24 25 
 27 28 29 30 31 32 33 34 36 37 38 39 
 40 41 42 43 44 47 48 49 
 18 
 7 9 17 18 19 20 23 25 29 30 31 33 
 35 39 40 41 44 47 
 27 
 2 5 6 9 10 15 17 19 20 21 23 25 
 26 27 28 29 33 34 35 38 40 41 43 45 
 46 48 49 
 36 
 1 2 3 4 5 6 7 10 11 12 14 15 
 16 17 18 19 20 21 22 24 26 27 28 29 
 30 32 33 35 36 38 39 40 42 43 47 48 
 2 
 15 38 
 27 
 1 2 4 5 8 9 14 17 18 19 21 24 
 25 27 28 30 32 37 38 39 40 41 42 43 
 45 48 49 
 13 
 5 8 11 18 19 20 24 27 29 31 35 42 
 45 
 14 
 2 9 13 18 24 29 31 33 37 39 40 45 
 48 49 
 43 
 1 2 3 4 5 6 7 8 9 10 11 12 
 13 15 16 17 18 19 20 21 22 24 25 26 
 27 28 30 31 32 33 34 35 36 38 39 41 
 42 43 44 45 46 48 49 
 35 
 1 3 4 6 10 11 13 16 17 18 19 20 
 21 22 23 24 25 26 27 28 29 30 31 32 
 33 34 35 36 37 38 39 42 44 46 47 
 39 
 2 3 5 6 7 8 9 10 12 13 14 15 
 16 18 19 21 22 23 24 25 26 27 29 32 
 33 34 35 36 37 38 39 41 42 43 44 45 
 46 47 48 
 10 
 3 6 8 10 14 17 26 30 37 42 
 14 
 6 10 14 15 16 22 23 29 30 39 43 44 
 45 49 
 28 
 1 3 5 8 9 11 12 13 14 18 20 21 
 22 24 26 27 29 31 32 34 35 36 38 39 
 40 42 45 49 
 47 
 1 2 3 4 5 6 7 8 9 10 11 12 
 13 14 15 16 17 18 19 20 21 22 23 25 
 26 27 28 30 31 32 33 34 35 36 37 38 
 39 40 41 42 43 44 45 46 47 48 49 
 22 
 4 5 7 8 12 13 14 20 22 23 26 27 
 28 29 30 34 36 39 42 43 46 47 
 4 
 7 34 37 40 
 5 
 15 28 39 41 44 
 16 
 1 2 14 15 17 18 22 23 26 28 31 37 
 38 44 45 46 
 28 
 1 2 4 5 7 8 9 10 13 14 18 20 
 21 23 24 26 27 32 33 35 36 38 39 40 
 44 45 48 49 
 12 
 3 19 22 23 27 31 35 37 39 42 45 47 
 17 
 1 3 6 7 9 10 11 12 14 26 28 31 
 36 39 42 44 45 
 41 
 1 2 3 4 5 6 7 8 9 11 12 14 
 15 16 17 18 19 21 22 23 24 25 26 28 
 29 30 31 33 34 35 36 37 38 39 40 42 
 44 45 46 47 48 
 35 
 2 3 4 6 9 10 11 12 16 17 18 20 
 21 23 24 25 26 27 28 29 30 32 33 34 
 35 37 38 39 40 42 43 45 46 48 49 
 35 
 1 2 3 5 6 8 10 11 12 16 17 18 
 19 20 21 23 24 30 31 32 33 34 35 36 
 38 39 40 41 42 43 44 45 46 48 49 
 21 
 1 3 6 10 11 12 13 14 15 16 18 22 
 24 30 31 33 34 35 41 44 46 
 6 
 5 21 29 35 36 44 
 39 
 1 2 3 5 6 7 8 9 10 11 14 15 
 16 17 18 19 21 22 25 26 27 28 29 30 
 31 32 33 34 35 36 37 40 41 42 43 45 
 46 48 49 
 20 
 3 4 6 9 10 11 16 18 19 22 25 26 
 27 29 30 31 35 42 47 49 
 48 
 1 2 3 4 5 6 7 8 9 10 11 12 
 13 14 15 16 17 18 19 20 21 22 23 24 
 26 27 28 29 30 31 32 33 34 35 36 37 
 38 39 40 41 42 43 44 45 46 47 48 49 
 17 
 12 13 14 15 17 19 20 21 23 28 29 30 
 32 37 38 41 48 
 32 
 1 2 3 4 5 8 10 11 12 13 14 16 
 20 25 27 28 30 31 32 34 35 36 38 39 
 40 41 42 45 46 47 48 49 
 32 
 2 3 4 5 8 10 11 12 13 14 17 18 
 19 20 24 25 26 27 28 30 31 33 34 37 
 38 39 40 41 42 46 47 48 
 46 
 1 2 3 4 5 6 7 8 9 10 11 12 
 13 14 15 16 17 18 19 20 21 22 23 24 
 25 26 27 28 29 30 31 32 33 34 35 36 
 37 39 40 41 42 43 44 45 46 47 
 16 
 2 8 9 12 13 18 20 28 29 31 36 38 
 41 42 45 49 
 42 
 1 2 3 4 5 6 7 8 9 11 12 14 
 15 16 17 18 20 21 22 23 24 25 26 28 
 30 31 32 33 34 35 36 37 38 39 40 41 
 42 43 45 46 47 49 
 30 
 1 2 4 6 7 8 9 11 12 13 15 16 
 17 18 19 20 26 27 28 33 34 35 39 41 
 42 44 45 46 47 48 
 12 
 2 3 4 12 13 17 20 34 36 37 38 43 
 8 
 2 11 15 16 20 34 46 48 
 18 
 4 8 9 11 12 16 18 21 22 26 29 30 
 36 40 42 45 47 49 
 2 
 22 48 
 15 
 11 12 16 23 25 26 29 36 37 40 41 43 
 44 47 48 
 20 
 1 3 4 6 7 8 11 12 13 14 20 21 
 25 27 33 37 39 42 45 47 
 9 
 7 19 20 30 31 38 43 44 49 
 17 
 4 6 10 12 14 17 18 21 22 24 27 30 
 31 36 42 43 49 
 8 
 3 5 13 25 26 28 41 45 
 27 
 1 2 3 4 5 7 9 12 13 15 20 21 
 23 27 28 29 30 31 33 34 35 40 41 42 
 44 48 49 
 45 
 1 2 3 4 5 6 7 8 9 11 12 13 
 14 15 16 17 18 19 20 21 22 23 24 25 
 27 28 29 30 32 33 34 35 36 37 38 39 
 40 41 42 43 44 45 46 48 49 
 8 
 1 11 12 15 21 25 35 39 
 31 
 3 4 5 6 7 8 9 10 11 13 17 19 
 22 24 27 28 30 31 32 33 35 36 37 39 
 40 41 43 44 45 46 48 
 21 
 3 8 9 10 13 14 15 17 19 20 21 22 
 26 31 37 39 41 42 44 45 47 
 18 
 8 14 17 18 19 20 23 24 27 29 31 34 
 36 39 41 43 45 49 
 43 
 1 2 3 4 5 6 8 10 11 12 13 15 
 16 17 18 19 20 21 22 24 25 26 27 28 
 30 31 32 34 35 36 37 38 39 40 41 42 
 43 44 45 46 47 48 49 
 5 
 6 12 13 19 22 
 23 
 1 2 3 5 6 8 12 14 18 19 21 22 
 25 28 30 33 35 37 38 42 43 45 48 
 24 
 3 4 5 7 11 13 15 22 24 25 27 28 
 30 31 34 37 40 42 44 45 46 47 48 49 
 28 
 2 5 7 8 9 10 11 12 13 14 15 16 
 17 19 20 21 22 25 26 28 29 30 34 36 
 38 41 43 46 
 35 
 2 3 4 7 8 9 10 11 12 15 18 19 
 20 21 22 25 26 28 29 30 31 32 33 34 
 35 36 37 38 39 40 41 43 45 46 49 
 10 
 12 14 16 21 23 34 36 43 48 49 
 14 
 4 6 12 14 16 19 21 26 27 34 39 44 
 45 48 
 15 
 1 3 9 10 11 12 14 15 26 28 31 37 
 43 47 48 
 9 
 3 13 17 20 26 31 32 33 38 
 15 
 2 3 4 10 12 13 20 25 35 38 39 40 
 45 46 48 
 26 
 4 5 7 8 10 13 14 18 19 20 21 23 
 24 25 29 30 32 33 35 36 37 39 40 42 
 44 45 
 40 
 1 2 3 4 5 6 8 9 10 11 12 14 
 15 16 17 18 19 20 21 22 23 24 25 26 
 29 30 31 33 34 35 36 38 39 40 42 44 
 45 47 48 49 
 23 
 9 11 12 13 14 15 18 22 23 24 25 29 
 30 32 33 36 37 39 42 43 45 46 47 
 34 
 1 5 6 7 8 10 11 13 14 15 16 17 
 18 20 22 24 25 26 27 28 29 32 34 36 
 37 38 39 40 42 43 44 45 47 49 
 9 
 3 4 5 8 23 25 29 45 48 
 36 
 1 2 4 5 6 7 8 9 12 13 14 16 
 18 20 21 22 23 24 25 26 27 28 30 31 
 33 34 36 37 39 40 42 43 45 47 48 49 
 33 
 1 3 5 6 7 8 9 12 13 14 15 16 
 18 19 20 22 24 25 26 31 33 34 35 36 
 37 38 39 40 41 42 45 47 48 
 